Name: Digx
Courses: 4
Rooms: 2
Days: 1
Periods_per_day: 8
Curricula: 2
Constraints: 2

COURSES:
ABAP_Objects S.Weemaels 5 1 5
Java_EE_NW K.V.Ryckegem 2 1 3
Java_EE_BIZ K.V.Ryckegem 2 1 3
Networking B.Drabbé 2 1 6

ROOMS:
A	6
B	6

CURRICULA:
DigX3_Bizit    3 ABAP_Objects Java_EE_BIZ Networking
DigX3_Network  2  Java_EE_NW Networking

UNAVAILABILITY_CONSTRAINTS:
Java_EE_NW 0 0
Java_EE_BIZ 0 0

END.
